NAME: ic6 
TYPE: TSP
COMMENT: exemplo apostila inteligencia computacinal
DIMENSION: 6
EDGE_WEIGHT_TYPE: EXPLICIT
EDGE_WEIGHT_FORMAT: FULL_MATRIX 
DISPLAY_DATA_TYPE: TWOD_DISPLAY
EDGE_WEIGHT_SECTION
 0 2 1 4 9 1
 2 0 5 9 7 2
 1 5 0 3 8 6
 4 9 3 0 2 5
 9 7 8 2 0 2
 1 2 6 5 2 0
EOF
